\* Problem: Unknown *\

Maximize
 obj: + xp_0_0 + xp_0_1 + xp_0_2 + xp_0_3 + xp_1_0 + xp_1_1 + xp_1_2
 + xp_2_0 + xp_2_1 + xp_2_2 + xp_2_3 + xp_2_4 + xp_3_0 + xp_3_1 + xp_3_2
 + xp_4_0 + xp_5_0 + xp_5_1 + xp_6_0 + xp_6_1 + xp_6_2 + xp_7_0 + xp_8_0
 + xp_8_1 + xp_9_0 + xp_10_0 + xp_10_1 + xp_11_0 + xp_11_1 + xp_11_2
 + xp_11_3 + xp_11_4 + xp_12_0 + xp_13_0 + xp_13_1 + xp_14_0 + xp_14_1
 + xp_14_2 + xp_15_0 + xp_16_0 + xp_17_0 + xp_17_1 + xp_17_2 + xp_17_3
 + xp_17_4 + xp_17_5 + xp_18_0 + xp_18_1 + xp_18_2 + xp_18_3 + xp_19_0
 + xp_19_1 + xp_19_2 + xp_19_3 + xp_20_0 + xp_20_1 + xp_20_2 + xp_21_0
 + xp_21_1 + xp_21_2 + xp_21_3 + xp_21_4 + xp_22_0 + xp_22_1 + xp_22_2
 + xp_22_3 + xp_22_4 + xp_23_0 + xp_23_1 + xp_23_2 + xp_23_3 + xp_23_4

Subject To
 r_1: 0 xp_0_0 <= 26.3893805309735
 r_2: + xp_18_3 + xp_5_1 + xp_2_2 <= 25.9391100702576
 r_3: + xp_21_3 + xp_18_2 <= 26.7924528301887
 r_4: + xp_17_1 + xp_15_0 <= 27.1553784860558
 r_5: + xp_18_0 <= 25.6936067551267
 r_6: + xp_18_1 <= 26.5090230242688
 r_7: 0 xp_0_0 <= 26.3893805309735
 r_8: + xp_22_2 + xp_11_2 + xp_3_1 + xp_2_3 <= 25.9391100702576
 r_9: + xp_23_2 + xp_11_1 + xp_6_2 + xp_3_2 <= 26.7924528301887
 r_10: + xp_17_3 + xp_3_0 <= 27.1553784860558
 r_11: + xp_18_1 + xp_11_3 <= 25.6936067551267
 r_12: + xp_11_0 <= 26.5090230242688
 r_13: + xp_11_4 <= 28.3056478405316
 r_14: + xp_21_1 + xp_14_0 + xp_0_2 <= 25.9391100702576
 r_15: + xp_21_0 + xp_19_1 <= 26.7924528301887
 r_16: + xp_22_1 + xp_21_4 + xp_14_2 + xp_0_3 + xp_0_1
 <= 26.9620253164557
 r_17: + xp_0_0 <= 25.6936067551267
 r_18: + xp_21_3 + xp_4_0 <= 26.3893805309735
 r_19: + xp_19_0 <= 26.3893805309735
 r_20: + xp_21_2 + xp_19_3 + xp_19_2 + xp_14_1 <= 28.3056478405316
 r_21: + xp_20_1 <= 25.9391100702576
 r_22: + xp_21_1 <= 26.7924528301887
 r_23: + xp_22_3 + xp_22_2 + xp_17_5 <= 26.9620253164557
 r_24: + xp_23_4 + xp_6_1 + xp_3_1 <= 26.7924528301887
 r_25: 0 xp_0_0 <= 28.3056478405316
 r_26: + xp_18_3 + xp_0_2 <= 25.6936067551267
 r_27: + xp_11_4 + xp_11_2 <= 25.9391100702576
 r_28: + xp_19_2 + xp_10_1 <= 25.9391100702576
 r_29: + xp_20_2 <= 26.7924528301887
 r_30: + xp_2_0 <= 26.7924528301887
 r_31: + xp_23_2 + xp_18_2 + xp_6_2 + xp_3_2 + xp_2_4
 <= 26.7924528301887
 r_32: + xp_2_1 <= 28.3056478405316
 r_33: + xp_11_1 + xp_2_2 <= 26.7924528301887
 r_34: + xp_19_1 + xp_2_3 <= 26.7924528301887
 r_35: 0 xp_0_0 <= 26.9620253164557
 r_36: + xp_14_2 + xp_9_0 <= 26.9620253164557
 r_37: + xp_21_4 + xp_13_1 + xp_8_1 <= 26.7924528301887
 r_38: + xp_23_3 + xp_1_1 <= 28.3056478405316
 r_39: + xp_17_5 + xp_17_4 + xp_0_3 <= 27.1553784860558
 r_40: + xp_0_1 <= 25.6936067551267
 r_41: + xp_12_0 + xp_2_4 <= 26.7924528301887
 r_42: + xp_21_4 <= 26.7924528301887
 r_43: + xp_16_0 <= 26.7924528301887
 r_44: + xp_23_4 + xp_23_2 + xp_23_1 + xp_1_2 <= 28.3056478405316
 r_45: + xp_3_2 + xp_3_1 <= 27.1553784860558
 r_46: + xp_18_2 <= 25.6936067551267
 r_47: + xp_22_4 + xp_13_1 <= 28.3056478405316
 r_48: + xp_13_0 <= 28.3056478405316
 r_49: + xp_17_2 <= 27.1553784860558
 r_50: 0 xp_0_0 <= 25.6936067551267
 r_51: + xp_8_1 + xp_1_1 <= 27.1553784860558
 r_52: + xp_8_0 + xp_1_2 <= 27.1553784860558
 r_53: + xp_1_0 <= 27.1553784860558
 r_54: + xp_0_3 <= 25.6936067551267
 r_55: 0 xp_0_0 <= 27.1553784860558
 r_56: 0 xp_0_0 <= 27.1553784860558
 r_57: + xp_22_1 <= 25.6936067551267
 r_58: + xp_23_4 + xp_22_3 + xp_17_5 + xp_6_1 + xp_5_0
 <= 25.6936067551267
 r_59: + xp_23_3 + xp_22_0 + xp_17_4 <= 25.6936067551267
 r_60: + xp_23_1 + xp_6_0 <= 25.6936067551267
 r_61: + xp_23_0 + xp_22_4 + xp_17_2 <= 25.6936067551267
 r_62: + xp_17_0 <= 25.6936067551267
 r_63: + xp_17_1 + xp_11_3 + xp_5_1 <= 25.6936067551267
 r_64: + xp_23_2 + xp_22_2 + xp_17_3 + xp_6_2 <= 25.6936067551267
 r_65: + xp_20_1 + xp_19_2 + xp_14_1 + xp_11_4 + xp_10_1 + xp_2_1
 <= 28.3056478405316
 r_66: + xp_21_2 + xp_20_2 + xp_7_0 <= 28.3056478405316
 r_67: + xp_19_3 + xp_10_0 <= 28.3056478405316
 r_68: + xp_20_0 <= 28.3056478405316

Bounds
 0 <= xp_0_0 <= 30
 0 <= xp_0_1 <= 15
 0 <= xp_0_2 <= 10
 0 <= xp_0_3 <= 5
 0 <= xp_1_0 <= 21.342325
 0 <= xp_1_1 <= 12.0134875
 0 <= xp_1_2 <= 0.6711625
 0 <= xp_2_0 <= 21.18406
 0 <= xp_2_1 <= 0.59203
 0 <= xp_2_2 <= 5
 0 <= xp_2_3 <= 6.18406
 0 <= xp_2_4 <= 0.59203
 0 <= xp_3_0 <= 20
 0 <= xp_3_1 <= 5
 0 <= xp_3_2 <= 5
 0 <= xp_4_0 <= 25.3224
 0 <= xp_5_0 <= 12.6612
 0 <= xp_5_1 <= 12.6612
 0 <= xp_6_0 <= 15.19344
 0 <= xp_6_1 <= 3.79836
 0 <= xp_6_2 <= 3.79836
 0 <= xp_7_0 <= 21.84057
 0 <= xp_8_0 <= 16.35405
 0 <= xp_8_1 <= 3.27081
 0 <= xp_9_0 <= 18.200475
 0 <= xp_10_0 <= 15.1670625
 0 <= xp_10_1 <= 3.0334125
 0 <= xp_11_0 <= 24.20282
 0 <= xp_11_1 <= 14.60141
 0 <= xp_11_2 <= 9.20282
 0 <= xp_11_3 <= 4.60141
 0 <= xp_11_4 <= 5
 0 <= xp_12_0 <= 17.09262
 0 <= xp_13_0 <= 13.8481875
 0 <= xp_13_1 <= 2.7696375
 0 <= xp_14_0 <= 10.551
 0 <= xp_14_1 <= 2.63775
 0 <= xp_14_2 <= 2.63775
 0 <= xp_15_0 <= 15.668235
 0 <= xp_16_0 <= 15.035175
 0 <= xp_17_0 <= 26.998835
 0 <= xp_17_1 <= 2.332945
 0 <= xp_17_2 <= 2.332945
 0 <= xp_17_3 <= 5
 0 <= xp_17_4 <= 5
 0 <= xp_17_5 <= 2.332945
 0 <= xp_18_0 <= 21.049245
 0 <= xp_18_1 <= 12.016415
 0 <= xp_18_2 <= 7.016415
 0 <= xp_18_3 <= 2.016415
 0 <= xp_19_0 <= 28.874565
 0 <= xp_19_1 <= 1.9372825
 0 <= xp_19_2 <= 1.9372825
 0 <= xp_19_3 <= 8.874565
 0 <= xp_20_0 <= 28.61079
 0 <= xp_20_1 <= 10.416185
 0 <= xp_20_2 <= 1.805395
 0 <= xp_21_0 <= 28.030485
 0 <= xp_21_1 <= 6.5152425
 0 <= xp_21_2 <= 1.5152425
 0 <= xp_21_3 <= 1.5152425
 0 <= xp_21_4 <= 1.5152425
 0 <= xp_22_0 <= 22.502935
 0 <= xp_22_1 <= 2.502935
 0 <= xp_22_2 <= 2.502935
 0 <= xp_22_3 <= 5
 0 <= xp_22_4 <= 5
 0 <= xp_23_0 <= 22.502935
 0 <= xp_23_1 <= 11.2514675
 0 <= xp_23_2 <= 1.2514675
 0 <= xp_23_3 <= 1.2514675
 0 <= xp_23_4 <= 1.2514675

End
